\ This file has been generated by DOcplex
\ ENCODING=ISO-8859-1
\Problem name: MarketSharingProblem

Minimize
 obj: - 105733422 x_0 - 127518192 x_1 - 130993038 x_2 - 21203568 x_3
      - 99587520 x_4 - 19179666 x_5 - 118965042 x_6 - 161594766 x_7
      - 142105950 x_8 - 166413384 x_9 - 1067597 s_plus_0@0 - 2135194 s_plus_0@1
      - 4270388 s_plus_0@2 - 8540776 s_plus_0@3 - 17081552 s_plus_0@4
      - 34163104 s_plus_0@5 - 68326208 s_plus_0@6 - 136652416 s_plus_0@7
      - 273304832 s_plus_0@8 - 7473179 s_plus_0@9 - 1055231 s_plus_1@0
      - 2110462 s_plus_1@1 - 4220924 s_plus_1@2 - 8441848 s_plus_1@3
      - 16883696 s_plus_1@4 - 33767392 s_plus_1@5 - 67534784 s_plus_1@6
      - 135069568 s_plus_1@7 - 270139136 s_plus_1@8 - 1055231 s_plus_1@9
      + 1067599 s_minus_0@0 + 2135198 s_minus_0@1 + 4270396 s_minus_0@2
      + 8540792 s_minus_0@3 + 17081584 s_minus_0@4 + 34163168 s_minus_0@5
      + 68326336 s_minus_0@6 + 136652672 s_minus_0@7 + 273305344 s_minus_0@8
      + 7473193 s_minus_0@9 + 1055233 s_minus_1@0 + 2110466 s_minus_1@1
      + 4220932 s_minus_1@2 + 8441864 s_minus_1@3 + 16883728 s_minus_1@4
      + 33767456 s_minus_1@5 + 67534912 s_minus_1@6 + 135069824 s_minus_1@7
      + 270139648 s_minus_1@8 + 1055233 s_minus_1@9 + [ 29587716 x_0^2
      + 42934752 x_0*x_1 + 31384908 x_0*x_2 + 9332208 x_0*x_3 + 46908360 x_0*x_4
      + 4154976 x_0*x_5 + 42357672 x_0*x_6 + 51228216 x_0*x_7 + 60675840 x_0*x_8
      + 74781324 x_0*x_9 + 140148 x_0*s_plus_0@0 + 280296 x_0*s_plus_0@1
      + 560592 x_0*s_plus_0@2 + 1121184 x_0*s_plus_0@3 + 2242368 x_0*s_plus_0@4
      + 4484736 x_0*s_plus_0@5 + 8969472 x_0*s_plus_0@6
      + 17938944 x_0*s_plus_0@7 + 35877888 x_0*s_plus_0@8
      + 981036 x_0*s_plus_0@9 + 684252 x_0*s_plus_1@0 + 1368504 x_0*s_plus_1@1
      + 2737008 x_0*s_plus_1@2 + 5474016 x_0*s_plus_1@3
      + 10948032 x_0*s_plus_1@4 + 21896064 x_0*s_plus_1@5
      + 43792128 x_0*s_plus_1@6 + 87584256 x_0*s_plus_1@7
      + 175168512 x_0*s_plus_1@8 + 684252 x_0*s_plus_1@9
      - 140148 x_0*s_minus_0@0 - 280296 x_0*s_minus_0@1 - 560592 x_0*s_minus_0@2
      - 1121184 x_0*s_minus_0@3 - 2242368 x_0*s_minus_0@4
      - 4484736 x_0*s_minus_0@5 - 8969472 x_0*s_minus_0@6
      - 17938944 x_0*s_minus_0@7 - 35877888 x_0*s_minus_0@8
      - 981036 x_0*s_minus_0@9 - 684252 x_0*s_minus_1@0
      - 1368504 x_0*s_minus_1@1 - 2737008 x_0*s_minus_1@2
      - 5474016 x_0*s_minus_1@3 - 10948032 x_0*s_minus_1@4
      - 21896064 x_0*s_minus_1@5 - 43792128 x_0*s_minus_1@6
      - 87584256 x_0*s_minus_1@7 - 175168512 x_0*s_minus_1@8
      - 684252 x_0*s_minus_1@9 + 30865536 x_1^2 + 67864608 x_1*x_2
      + 9497088 x_1*x_3 + 43528320 x_1*x_4 + 10090656 x_1*x_5 + 56784672 x_1*x_6
      + 79340256 x_1*x_7 + 64303200 x_1*x_8 + 73998144 x_1*x_9
      + 593568 x_1*s_plus_0@0 + 1187136 x_1*s_plus_0@1 + 2374272 x_1*s_plus_0@2
      + 4748544 x_1*s_plus_0@3 + 9497088 x_1*s_plus_0@4
      + 18994176 x_1*s_plus_0@5 + 37988352 x_1*s_plus_0@6
      + 75976704 x_1*s_plus_0@7 + 151953408 x_1*s_plus_0@8
      + 4154976 x_1*s_plus_0@9 + 395712 x_1*s_plus_1@0 + 791424 x_1*s_plus_1@1
      + 1582848 x_1*s_plus_1@2 + 3165696 x_1*s_plus_1@3 + 6331392 x_1*s_plus_1@4
      + 12662784 x_1*s_plus_1@5 + 25325568 x_1*s_plus_1@6
      + 50651136 x_1*s_plus_1@7 + 101302272 x_1*s_plus_1@8
      + 395712 x_1*s_plus_1@9 - 593568 x_1*s_minus_0@0 - 1187136 x_1*s_minus_0@1
      - 2374272 x_1*s_minus_0@2 - 4748544 x_1*s_minus_0@3
      - 9497088 x_1*s_minus_0@4 - 18994176 x_1*s_minus_0@5
      - 37988352 x_1*s_minus_0@6 - 75976704 x_1*s_minus_0@7
      - 151953408 x_1*s_minus_0@8 - 4154976 x_1*s_minus_0@9
      - 395712 x_1*s_minus_1@0 - 791424 x_1*s_minus_1@1
      - 1582848 x_1*s_minus_1@2 - 3165696 x_1*s_minus_1@3
      - 6331392 x_1*s_minus_1@4 - 12662784 x_1*s_minus_1@5
      - 25325568 x_1*s_minus_1@6 - 50651136 x_1*s_minus_1@7
      - 101302272 x_1*s_minus_1@8 - 395712 x_1*s_minus_1@9 + 41570370 x_2^2
      + 8969472 x_2*x_3 + 38878704 x_2*x_4 + 12638052 x_2*x_5 + 60881940 x_2*x_6
      + 89356716 x_2*x_7 + 62085564 x_2*x_8 + 68771448 x_2*x_9
      + 799668 x_2*s_plus_0@0 + 1599336 x_2*s_plus_0@1 + 3198672 x_2*s_plus_0@2
      + 6397344 x_2*s_plus_0@3 + 12794688 x_2*s_plus_0@4
      + 25589376 x_2*s_plus_0@5 + 51178752 x_2*s_plus_0@6
      + 102357504 x_2*s_plus_0@7 + 204715008 x_2*s_plus_0@8
      + 5597676 x_2*s_plus_0@9 + 214344 x_2*s_plus_1@0 + 428688 x_2*s_plus_1@1
      + 857376 x_2*s_plus_1@2 + 1714752 x_2*s_plus_1@3 + 3429504 x_2*s_plus_1@4
      + 6859008 x_2*s_plus_1@5 + 13718016 x_2*s_plus_1@6
      + 27436032 x_2*s_plus_1@7 + 54872064 x_2*s_plus_1@8
      + 214344 x_2*s_plus_1@9 - 799668 x_2*s_minus_0@0 - 1599336 x_2*s_minus_0@1
      - 3198672 x_2*s_minus_0@2 - 6397344 x_2*s_minus_0@3
      - 12794688 x_2*s_minus_0@4 - 25589376 x_2*s_minus_0@5
      - 51178752 x_2*s_minus_0@6 - 102357504 x_2*s_minus_0@7
      - 204715008 x_2*s_minus_0@8 - 5597676 x_2*s_minus_0@9
      - 214344 x_2*s_minus_1@0 - 428688 x_2*s_minus_1@1 - 857376 x_2*s_minus_1@2
      - 1714752 x_2*s_minus_1@3 - 3429504 x_2*s_minus_1@4
      - 6859008 x_2*s_minus_1@5 - 13718016 x_2*s_minus_1@6
      - 27436032 x_2*s_minus_1@7 - 54872064 x_2*s_minus_1@8
      - 214344 x_2*s_minus_1@9 + 857376 x_3^2 + 8244000 x_3*x_4
      + 1286064 x_3*x_5 + 9002448 x_3*x_6 + 11838384 x_3*x_7 + 11376720 x_3*x_8
      + 13553136 x_3*x_9 + 65952 x_3*s_plus_0@0 + 131904 x_3*s_plus_0@1
      + 263808 x_3*s_plus_0@2 + 527616 x_3*s_plus_0@3 + 1055232 x_3*s_plus_0@4
      + 2110464 x_3*s_plus_0@5 + 4220928 x_3*s_plus_0@6 + 8441856 x_3*s_plus_0@7
      + 16883712 x_3*s_plus_0@8 + 461664 x_3*s_plus_0@9 + 98928 x_3*s_plus_1@0
      + 197856 x_3*s_plus_1@1 + 395712 x_3*s_plus_1@2 + 791424 x_3*s_plus_1@3
      + 1582848 x_3*s_plus_1@4 + 3165696 x_3*s_plus_1@5 + 6331392 x_3*s_plus_1@6
      + 12662784 x_3*s_plus_1@7 + 25325568 x_3*s_plus_1@8 + 98928 x_3*s_plus_1@9
      - 65952 x_3*s_minus_0@0 - 131904 x_3*s_minus_0@1 - 263808 x_3*s_minus_0@2
      - 527616 x_3*s_minus_0@3 - 1055232 x_3*s_minus_0@4
      - 2110464 x_3*s_minus_0@5 - 4220928 x_3*s_minus_0@6
      - 8441856 x_3*s_minus_0@7 - 16883712 x_3*s_minus_0@8
      - 461664 x_3*s_minus_0@9 - 98928 x_3*s_minus_1@0 - 197856 x_3*s_minus_1@1
      - 395712 x_3*s_minus_1@2 - 791424 x_3*s_minus_1@3
      - 1582848 x_3*s_minus_1@4 - 3165696 x_3*s_minus_1@5
      - 6331392 x_3*s_minus_1@6 - 12662784 x_3*s_minus_1@7
      - 25325568 x_3*s_minus_1@8 - 98928 x_3*s_minus_1@9 + 20065896 x_4^2
      + 5490504 x_4*x_5 + 41665176 x_4*x_6 + 53701416 x_4*x_7 + 54393912 x_4*x_8
      + 65407896 x_4*x_9 + 263808 x_4*s_plus_0@0 + 527616 x_4*s_plus_0@1
      + 1055232 x_4*s_plus_0@2 + 2110464 x_4*s_plus_0@3 + 4220928 x_4*s_plus_0@4
      + 8441856 x_4*s_plus_0@5 + 16883712 x_4*s_plus_0@6
      + 33767424 x_4*s_plus_0@7 + 67534848 x_4*s_plus_0@8
      + 1846656 x_4*s_plus_0@9 + 511128 x_4*s_plus_1@0 + 1022256 x_4*s_plus_1@1
      + 2044512 x_4*s_plus_1@2 + 4089024 x_4*s_plus_1@3 + 8178048 x_4*s_plus_1@4
      + 16356096 x_4*s_plus_1@5 + 32712192 x_4*s_plus_1@6
      + 65424384 x_4*s_plus_1@7 + 130848768 x_4*s_plus_1@8
      + 511128 x_4*s_plus_1@9 - 263808 x_4*s_minus_0@0 - 527616 x_4*s_minus_0@1
      - 1055232 x_4*s_minus_0@2 - 2110464 x_4*s_minus_0@3
      - 4220928 x_4*s_minus_0@4 - 8441856 x_4*s_minus_0@5
      - 16883712 x_4*s_minus_0@6 - 33767424 x_4*s_minus_0@7
      - 67534848 x_4*s_minus_0@8 - 1846656 x_4*s_minus_0@9
      - 511128 x_4*s_minus_1@0 - 1022256 x_4*s_minus_1@1
      - 2044512 x_4*s_minus_1@2 - 4089024 x_4*s_minus_1@3
      - 8178048 x_4*s_minus_1@4 - 16356096 x_4*s_minus_1@5
      - 32712192 x_4*s_minus_1@6 - 65424384 x_4*s_minus_1@7
      - 130848768 x_4*s_minus_1@8 - 511128 x_4*s_minus_1@9 + 964548 x_5^2
      + 9002448 x_5*x_6 + 13355280 x_5*x_7 + 8952984 x_5*x_8 + 9818604 x_5*x_9
      + 123660 x_5*s_plus_0@0 + 247320 x_5*s_plus_0@1 + 494640 x_5*s_plus_0@2
      + 989280 x_5*s_plus_0@3 + 1978560 x_5*s_plus_0@4 + 3957120 x_5*s_plus_0@5
      + 7914240 x_5*s_plus_0@6 + 15828480 x_5*s_plus_0@7
      + 31656960 x_5*s_plus_0@8 + 865620 x_5*s_plus_0@9 + 24732 x_5*s_plus_1@0
      + 49464 x_5*s_plus_1@1 + 98928 x_5*s_plus_1@2 + 197856 x_5*s_plus_1@3
      + 395712 x_5*s_plus_1@4 + 791424 x_5*s_plus_1@5 + 1582848 x_5*s_plus_1@6
      + 3165696 x_5*s_plus_1@7 + 6331392 x_5*s_plus_1@8 + 24732 x_5*s_plus_1@9
      - 123660 x_5*s_minus_0@0 - 247320 x_5*s_minus_0@1 - 494640 x_5*s_minus_0@2
      - 989280 x_5*s_minus_0@3 - 1978560 x_5*s_minus_0@4
      - 3957120 x_5*s_minus_0@5 - 7914240 x_5*s_minus_0@6
      - 15828480 x_5*s_minus_0@7 - 31656960 x_5*s_minus_0@8
      - 865620 x_5*s_minus_0@9 - 24732 x_5*s_minus_1@0 - 49464 x_5*s_minus_1@1
      - 98928 x_5*s_minus_1@2 - 197856 x_5*s_minus_1@3 - 395712 x_5*s_minus_1@4
      - 791424 x_5*s_minus_1@5 - 1582848 x_5*s_minus_1@6
      - 3165696 x_5*s_minus_1@7 - 6331392 x_5*s_minus_1@8
      - 24732 x_5*s_minus_1@9 + 26257140 x_6^2 + 72596664 x_6*x_7
      + 60708816 x_6*x_8 + 70346052 x_6*x_9 + 519372 x_6*s_plus_0@0
      + 1038744 x_6*s_plus_0@1 + 2077488 x_6*s_plus_0@2 + 4154976 x_6*s_plus_0@3
      + 8309952 x_6*s_plus_0@4 + 16619904 x_6*s_plus_0@5
      + 33239808 x_6*s_plus_0@6 + 66479616 x_6*s_plus_0@7
      + 132959232 x_6*s_plus_0@8 + 3635604 x_6*s_plus_0@9
      + 403956 x_6*s_plus_1@0 + 807912 x_6*s_plus_1@1 + 1615824 x_6*s_plus_1@2
      + 3231648 x_6*s_plus_1@3 + 6463296 x_6*s_plus_1@4
      + 12926592 x_6*s_plus_1@5 + 25853184 x_6*s_plus_1@6
      + 51706368 x_6*s_plus_1@7 + 103412736 x_6*s_plus_1@8
      + 403956 x_6*s_plus_1@9 - 519372 x_6*s_minus_0@0 - 1038744 x_6*s_minus_0@1
      - 2077488 x_6*s_minus_0@2 - 4154976 x_6*s_minus_0@3
      - 8309952 x_6*s_minus_0@4 - 16619904 x_6*s_minus_0@5
      - 33239808 x_6*s_minus_0@6 - 66479616 x_6*s_minus_0@7
      - 132959232 x_6*s_minus_0@8 - 3635604 x_6*s_minus_0@9
      - 403956 x_6*s_minus_1@0 - 807912 x_6*s_minus_1@1
      - 1615824 x_6*s_minus_1@2 - 3231648 x_6*s_minus_1@3
      - 6463296 x_6*s_minus_1@4 - 12926592 x_6*s_minus_1@5
      - 25853184 x_6*s_minus_1@6 - 51706368 x_6*s_minus_1@7
      - 103412736 x_6*s_minus_1@8 - 403956 x_6*s_minus_1@9 + 51252948 x_7^2
      + 80494416 x_7*x_8 + 91961820 x_7*x_9 + 799668 x_7*s_plus_0@0
      + 1599336 x_7*s_plus_0@1 + 3198672 x_7*s_plus_0@2 + 6397344 x_7*s_plus_0@3
      + 12794688 x_7*s_plus_0@4 + 25589376 x_7*s_plus_0@5
      + 51178752 x_7*s_plus_0@6 + 102357504 x_7*s_plus_0@7
      + 204715008 x_7*s_plus_0@8 + 5597676 x_7*s_plus_0@9
      + 453420 x_7*s_plus_1@0 + 906840 x_7*s_plus_1@1 + 1813680 x_7*s_plus_1@2
      + 3627360 x_7*s_plus_1@3 + 7254720 x_7*s_plus_1@4
      + 14509440 x_7*s_plus_1@5 + 29018880 x_7*s_plus_1@6
      + 58037760 x_7*s_plus_1@7 + 116075520 x_7*s_plus_1@8
      + 453420 x_7*s_plus_1@9 - 799668 x_7*s_minus_0@0 - 1599336 x_7*s_minus_0@1
      - 3198672 x_7*s_minus_0@2 - 6397344 x_7*s_minus_0@3
      - 12794688 x_7*s_minus_0@4 - 25589376 x_7*s_minus_0@5
      - 51178752 x_7*s_minus_0@6 - 102357504 x_7*s_minus_0@7
      - 204715008 x_7*s_minus_0@8 - 5597676 x_7*s_minus_0@9
      - 453420 x_7*s_minus_1@0 - 906840 x_7*s_minus_1@1
      - 1813680 x_7*s_minus_1@2 - 3627360 x_7*s_minus_1@3
      - 7254720 x_7*s_minus_1@4 - 14509440 x_7*s_minus_1@5
      - 29018880 x_7*s_minus_1@6 - 58037760 x_7*s_minus_1@7
      - 116075520 x_7*s_minus_1@8 - 453420 x_7*s_minus_1@9 + 37831716 x_8^2
      + 89768916 x_8*x_9 + 469908 x_8*s_plus_0@0 + 939816 x_8*s_plus_0@1
      + 1879632 x_8*s_plus_0@2 + 3759264 x_8*s_plus_0@3 + 7518528 x_8*s_plus_0@4
      + 15037056 x_8*s_plus_0@5 + 30074112 x_8*s_plus_0@6
      + 60148224 x_8*s_plus_0@7 + 120296448 x_8*s_plus_0@8
      + 3289356 x_8*s_plus_0@9 + 634788 x_8*s_plus_1@0 + 1269576 x_8*s_plus_1@1
      + 2539152 x_8*s_plus_1@2 + 5078304 x_8*s_plus_1@3
      + 10156608 x_8*s_plus_1@4 + 20313216 x_8*s_plus_1@5
      + 40626432 x_8*s_plus_1@6 + 81252864 x_8*s_plus_1@7
      + 162505728 x_8*s_plus_1@8 + 634788 x_8*s_plus_1@9
      - 469908 x_8*s_minus_0@0 - 939816 x_8*s_minus_0@1
      - 1879632 x_8*s_minus_0@2 - 3759264 x_8*s_minus_0@3
      - 7518528 x_8*s_minus_0@4 - 15037056 x_8*s_minus_0@5
      - 30074112 x_8*s_minus_0@6 - 60148224 x_8*s_minus_0@7
      - 120296448 x_8*s_minus_0@8 - 3289356 x_8*s_minus_0@9
      - 634788 x_8*s_minus_1@0 - 1269576 x_8*s_minus_1@1
      - 2539152 x_8*s_minus_1@2 - 5078304 x_8*s_minus_1@3
      - 10156608 x_8*s_minus_1@4 - 20313216 x_8*s_minus_1@5
      - 40626432 x_8*s_minus_1@6 - 81252864 x_8*s_minus_1@7
      - 162505728 x_8*s_minus_1@8 - 634788 x_8*s_minus_1@9 + 53623098 x_9^2
      + 494640 x_9*s_plus_0@0 + 989280 x_9*s_plus_0@1 + 1978560 x_9*s_plus_0@2
      + 3957120 x_9*s_plus_0@3 + 7914240 x_9*s_plus_0@4
      + 15828480 x_9*s_plus_0@5 + 31656960 x_9*s_plus_0@6
      + 63313920 x_9*s_plus_0@7 + 126627840 x_9*s_plus_0@8
      + 3462480 x_9*s_plus_0@9 + 799668 x_9*s_plus_1@0 + 1599336 x_9*s_plus_1@1
      + 3198672 x_9*s_plus_1@2 + 6397344 x_9*s_plus_1@3
      + 12794688 x_9*s_plus_1@4 + 25589376 x_9*s_plus_1@5
      + 51178752 x_9*s_plus_1@6 + 102357504 x_9*s_plus_1@7
      + 204715008 x_9*s_plus_1@8 + 799668 x_9*s_plus_1@9
      - 494640 x_9*s_minus_0@0 - 989280 x_9*s_minus_0@1
      - 1978560 x_9*s_minus_0@2 - 3957120 x_9*s_minus_0@3
      - 7914240 x_9*s_minus_0@4 - 15828480 x_9*s_minus_0@5
      - 31656960 x_9*s_minus_0@6 - 63313920 x_9*s_minus_0@7
      - 126627840 x_9*s_minus_0@8 - 3462480 x_9*s_minus_0@9
      - 799668 x_9*s_minus_1@0 - 1599336 x_9*s_minus_1@1
      - 3198672 x_9*s_minus_1@2 - 6397344 x_9*s_minus_1@3
      - 12794688 x_9*s_minus_1@4 - 25589376 x_9*s_minus_1@5
      - 51178752 x_9*s_minus_1@6 - 102357504 x_9*s_minus_1@7
      - 204715008 x_9*s_minus_1@8 - 799668 x_9*s_minus_1@9 + 4122 s_plus_0@0^2
      + 16488 s_plus_0@0*s_plus_0@1 + 32976 s_plus_0@0*s_plus_0@2
      + 65952 s_plus_0@0*s_plus_0@3 + 131904 s_plus_0@0*s_plus_0@4
      + 263808 s_plus_0@0*s_plus_0@5 + 527616 s_plus_0@0*s_plus_0@6
      + 1055232 s_plus_0@0*s_plus_0@7 + 2110464 s_plus_0@0*s_plus_0@8
      + 57708 s_plus_0@0*s_plus_0@9 - 8244 s_plus_0@0*s_minus_0@0
      - 16488 s_plus_0@0*s_minus_0@1 - 32976 s_plus_0@0*s_minus_0@2
      - 65952 s_plus_0@0*s_minus_0@3 - 131904 s_plus_0@0*s_minus_0@4
      - 263808 s_plus_0@0*s_minus_0@5 - 527616 s_plus_0@0*s_minus_0@6
      - 1055232 s_plus_0@0*s_minus_0@7 - 2110464 s_plus_0@0*s_minus_0@8
      - 57708 s_plus_0@0*s_minus_0@9 + 16488 s_plus_0@1^2
      + 65952 s_plus_0@1*s_plus_0@2 + 131904 s_plus_0@1*s_plus_0@3
      + 263808 s_plus_0@1*s_plus_0@4 + 527616 s_plus_0@1*s_plus_0@5
      + 1055232 s_plus_0@1*s_plus_0@6 + 2110464 s_plus_0@1*s_plus_0@7
      + 4220928 s_plus_0@1*s_plus_0@8 + 115416 s_plus_0@1*s_plus_0@9
      - 16488 s_plus_0@1*s_minus_0@0 - 32976 s_plus_0@1*s_minus_0@1
      - 65952 s_plus_0@1*s_minus_0@2 - 131904 s_plus_0@1*s_minus_0@3
      - 263808 s_plus_0@1*s_minus_0@4 - 527616 s_plus_0@1*s_minus_0@5
      - 1055232 s_plus_0@1*s_minus_0@6 - 2110464 s_plus_0@1*s_minus_0@7
      - 4220928 s_plus_0@1*s_minus_0@8 - 115416 s_plus_0@1*s_minus_0@9
      + 65952 s_plus_0@2^2 + 263808 s_plus_0@2*s_plus_0@3
      + 527616 s_plus_0@2*s_plus_0@4 + 1055232 s_plus_0@2*s_plus_0@5
      + 2110464 s_plus_0@2*s_plus_0@6 + 4220928 s_plus_0@2*s_plus_0@7
      + 8441856 s_plus_0@2*s_plus_0@8 + 230832 s_plus_0@2*s_plus_0@9
      - 32976 s_plus_0@2*s_minus_0@0 - 65952 s_plus_0@2*s_minus_0@1
      - 131904 s_plus_0@2*s_minus_0@2 - 263808 s_plus_0@2*s_minus_0@3
      - 527616 s_plus_0@2*s_minus_0@4 - 1055232 s_plus_0@2*s_minus_0@5
      - 2110464 s_plus_0@2*s_minus_0@6 - 4220928 s_plus_0@2*s_minus_0@7
      - 8441856 s_plus_0@2*s_minus_0@8 - 230832 s_plus_0@2*s_minus_0@9
      + 263808 s_plus_0@3^2 + 1055232 s_plus_0@3*s_plus_0@4
      + 2110464 s_plus_0@3*s_plus_0@5 + 4220928 s_plus_0@3*s_plus_0@6
      + 8441856 s_plus_0@3*s_plus_0@7 + 16883712 s_plus_0@3*s_plus_0@8
      + 461664 s_plus_0@3*s_plus_0@9 - 65952 s_plus_0@3*s_minus_0@0
      - 131904 s_plus_0@3*s_minus_0@1 - 263808 s_plus_0@3*s_minus_0@2
      - 527616 s_plus_0@3*s_minus_0@3 - 1055232 s_plus_0@3*s_minus_0@4
      - 2110464 s_plus_0@3*s_minus_0@5 - 4220928 s_plus_0@3*s_minus_0@6
      - 8441856 s_plus_0@3*s_minus_0@7 - 16883712 s_plus_0@3*s_minus_0@8
      - 461664 s_plus_0@3*s_minus_0@9 + 1055232 s_plus_0@4^2
      + 4220928 s_plus_0@4*s_plus_0@5 + 8441856 s_plus_0@4*s_plus_0@6
      + 16883712 s_plus_0@4*s_plus_0@7 + 33767424 s_plus_0@4*s_plus_0@8
      + 923328 s_plus_0@4*s_plus_0@9 - 131904 s_plus_0@4*s_minus_0@0
      - 263808 s_plus_0@4*s_minus_0@1 - 527616 s_plus_0@4*s_minus_0@2
      - 1055232 s_plus_0@4*s_minus_0@3 - 2110464 s_plus_0@4*s_minus_0@4
      - 4220928 s_plus_0@4*s_minus_0@5 - 8441856 s_plus_0@4*s_minus_0@6
      - 16883712 s_plus_0@4*s_minus_0@7 - 33767424 s_plus_0@4*s_minus_0@8
      - 923328 s_plus_0@4*s_minus_0@9 + 4220928 s_plus_0@5^2
      + 16883712 s_plus_0@5*s_plus_0@6 + 33767424 s_plus_0@5*s_plus_0@7
      + 67534848 s_plus_0@5*s_plus_0@8 + 1846656 s_plus_0@5*s_plus_0@9
      - 263808 s_plus_0@5*s_minus_0@0 - 527616 s_plus_0@5*s_minus_0@1
      - 1055232 s_plus_0@5*s_minus_0@2 - 2110464 s_plus_0@5*s_minus_0@3
      - 4220928 s_plus_0@5*s_minus_0@4 - 8441856 s_plus_0@5*s_minus_0@5
      - 16883712 s_plus_0@5*s_minus_0@6 - 33767424 s_plus_0@5*s_minus_0@7
      - 67534848 s_plus_0@5*s_minus_0@8 - 1846656 s_plus_0@5*s_minus_0@9
      + 16883712 s_plus_0@6^2 + 67534848 s_plus_0@6*s_plus_0@7
      + 135069696 s_plus_0@6*s_plus_0@8 + 3693312 s_plus_0@6*s_plus_0@9
      - 527616 s_plus_0@6*s_minus_0@0 - 1055232 s_plus_0@6*s_minus_0@1
      - 2110464 s_plus_0@6*s_minus_0@2 - 4220928 s_plus_0@6*s_minus_0@3
      - 8441856 s_plus_0@6*s_minus_0@4 - 16883712 s_plus_0@6*s_minus_0@5
      - 33767424 s_plus_0@6*s_minus_0@6 - 67534848 s_plus_0@6*s_minus_0@7
      - 135069696 s_plus_0@6*s_minus_0@8 - 3693312 s_plus_0@6*s_minus_0@9
      + 67534848 s_plus_0@7^2 + 270139392 s_plus_0@7*s_plus_0@8
      + 7386624 s_plus_0@7*s_plus_0@9 - 1055232 s_plus_0@7*s_minus_0@0
      - 2110464 s_plus_0@7*s_minus_0@1 - 4220928 s_plus_0@7*s_minus_0@2
      - 8441856 s_plus_0@7*s_minus_0@3 - 16883712 s_plus_0@7*s_minus_0@4
      - 33767424 s_plus_0@7*s_minus_0@5 - 67534848 s_plus_0@7*s_minus_0@6
      - 135069696 s_plus_0@7*s_minus_0@7 - 270139392 s_plus_0@7*s_minus_0@8
      - 7386624 s_plus_0@7*s_minus_0@9 + 270139392 s_plus_0@8^2
      + 14773248 s_plus_0@8*s_plus_0@9 - 2110464 s_plus_0@8*s_minus_0@0
      - 4220928 s_plus_0@8*s_minus_0@1 - 8441856 s_plus_0@8*s_minus_0@2
      - 16883712 s_plus_0@8*s_minus_0@3 - 33767424 s_plus_0@8*s_minus_0@4
      - 67534848 s_plus_0@8*s_minus_0@5 - 135069696 s_plus_0@8*s_minus_0@6
      - 270139392 s_plus_0@8*s_minus_0@7 - 540278784 s_plus_0@8*s_minus_0@8
      - 14773248 s_plus_0@8*s_minus_0@9 + 201978 s_plus_0@9^2
      - 57708 s_plus_0@9*s_minus_0@0 - 115416 s_plus_0@9*s_minus_0@1
      - 230832 s_plus_0@9*s_minus_0@2 - 461664 s_plus_0@9*s_minus_0@3
      - 923328 s_plus_0@9*s_minus_0@4 - 1846656 s_plus_0@9*s_minus_0@5
      - 3693312 s_plus_0@9*s_minus_0@6 - 7386624 s_plus_0@9*s_minus_0@7
      - 14773248 s_plus_0@9*s_minus_0@8 - 403956 s_plus_0@9*s_minus_0@9
      + 4122 s_plus_1@0^2 + 16488 s_plus_1@0*s_plus_1@1
      + 32976 s_plus_1@0*s_plus_1@2 + 65952 s_plus_1@0*s_plus_1@3
      + 131904 s_plus_1@0*s_plus_1@4 + 263808 s_plus_1@0*s_plus_1@5
      + 527616 s_plus_1@0*s_plus_1@6 + 1055232 s_plus_1@0*s_plus_1@7
      + 2110464 s_plus_1@0*s_plus_1@8 + 8244 s_plus_1@0*s_plus_1@9
      - 8244 s_plus_1@0*s_minus_1@0 - 16488 s_plus_1@0*s_minus_1@1
      - 32976 s_plus_1@0*s_minus_1@2 - 65952 s_plus_1@0*s_minus_1@3
      - 131904 s_plus_1@0*s_minus_1@4 - 263808 s_plus_1@0*s_minus_1@5
      - 527616 s_plus_1@0*s_minus_1@6 - 1055232 s_plus_1@0*s_minus_1@7
      - 2110464 s_plus_1@0*s_minus_1@8 - 8244 s_plus_1@0*s_minus_1@9
      + 16488 s_plus_1@1^2 + 65952 s_plus_1@1*s_plus_1@2
      + 131904 s_plus_1@1*s_plus_1@3 + 263808 s_plus_1@1*s_plus_1@4
      + 527616 s_plus_1@1*s_plus_1@5 + 1055232 s_plus_1@1*s_plus_1@6
      + 2110464 s_plus_1@1*s_plus_1@7 + 4220928 s_plus_1@1*s_plus_1@8
      + 16488 s_plus_1@1*s_plus_1@9 - 16488 s_plus_1@1*s_minus_1@0
      - 32976 s_plus_1@1*s_minus_1@1 - 65952 s_plus_1@1*s_minus_1@2
      - 131904 s_plus_1@1*s_minus_1@3 - 263808 s_plus_1@1*s_minus_1@4
      - 527616 s_plus_1@1*s_minus_1@5 - 1055232 s_plus_1@1*s_minus_1@6
      - 2110464 s_plus_1@1*s_minus_1@7 - 4220928 s_plus_1@1*s_minus_1@8
      - 16488 s_plus_1@1*s_minus_1@9 + 65952 s_plus_1@2^2
      + 263808 s_plus_1@2*s_plus_1@3 + 527616 s_plus_1@2*s_plus_1@4
      + 1055232 s_plus_1@2*s_plus_1@5 + 2110464 s_plus_1@2*s_plus_1@6
      + 4220928 s_plus_1@2*s_plus_1@7 + 8441856 s_plus_1@2*s_plus_1@8
      + 32976 s_plus_1@2*s_plus_1@9 - 32976 s_plus_1@2*s_minus_1@0
      - 65952 s_plus_1@2*s_minus_1@1 - 131904 s_plus_1@2*s_minus_1@2
      - 263808 s_plus_1@2*s_minus_1@3 - 527616 s_plus_1@2*s_minus_1@4
      - 1055232 s_plus_1@2*s_minus_1@5 - 2110464 s_plus_1@2*s_minus_1@6
      - 4220928 s_plus_1@2*s_minus_1@7 - 8441856 s_plus_1@2*s_minus_1@8
      - 32976 s_plus_1@2*s_minus_1@9 + 263808 s_plus_1@3^2
      + 1055232 s_plus_1@3*s_plus_1@4 + 2110464 s_plus_1@3*s_plus_1@5
      + 4220928 s_plus_1@3*s_plus_1@6 + 8441856 s_plus_1@3*s_plus_1@7
      + 16883712 s_plus_1@3*s_plus_1@8 + 65952 s_plus_1@3*s_plus_1@9
      - 65952 s_plus_1@3*s_minus_1@0 - 131904 s_plus_1@3*s_minus_1@1
      - 263808 s_plus_1@3*s_minus_1@2 - 527616 s_plus_1@3*s_minus_1@3
      - 1055232 s_plus_1@3*s_minus_1@4 - 2110464 s_plus_1@3*s_minus_1@5
      - 4220928 s_plus_1@3*s_minus_1@6 - 8441856 s_plus_1@3*s_minus_1@7
      - 16883712 s_plus_1@3*s_minus_1@8 - 65952 s_plus_1@3*s_minus_1@9
      + 1055232 s_plus_1@4^2 + 4220928 s_plus_1@4*s_plus_1@5
      + 8441856 s_plus_1@4*s_plus_1@6 + 16883712 s_plus_1@4*s_plus_1@7
      + 33767424 s_plus_1@4*s_plus_1@8 + 131904 s_plus_1@4*s_plus_1@9
      - 131904 s_plus_1@4*s_minus_1@0 - 263808 s_plus_1@4*s_minus_1@1
      - 527616 s_plus_1@4*s_minus_1@2 - 1055232 s_plus_1@4*s_minus_1@3
      - 2110464 s_plus_1@4*s_minus_1@4 - 4220928 s_plus_1@4*s_minus_1@5
      - 8441856 s_plus_1@4*s_minus_1@6 - 16883712 s_plus_1@4*s_minus_1@7
      - 33767424 s_plus_1@4*s_minus_1@8 - 131904 s_plus_1@4*s_minus_1@9
      + 4220928 s_plus_1@5^2 + 16883712 s_plus_1@5*s_plus_1@6
      + 33767424 s_plus_1@5*s_plus_1@7 + 67534848 s_plus_1@5*s_plus_1@8
      + 263808 s_plus_1@5*s_plus_1@9 - 263808 s_plus_1@5*s_minus_1@0
      - 527616 s_plus_1@5*s_minus_1@1 - 1055232 s_plus_1@5*s_minus_1@2
      - 2110464 s_plus_1@5*s_minus_1@3 - 4220928 s_plus_1@5*s_minus_1@4
      - 8441856 s_plus_1@5*s_minus_1@5 - 16883712 s_plus_1@5*s_minus_1@6
      - 33767424 s_plus_1@5*s_minus_1@7 - 67534848 s_plus_1@5*s_minus_1@8
      - 263808 s_plus_1@5*s_minus_1@9 + 16883712 s_plus_1@6^2
      + 67534848 s_plus_1@6*s_plus_1@7 + 135069696 s_plus_1@6*s_plus_1@8
      + 527616 s_plus_1@6*s_plus_1@9 - 527616 s_plus_1@6*s_minus_1@0
      - 1055232 s_plus_1@6*s_minus_1@1 - 2110464 s_plus_1@6*s_minus_1@2
      - 4220928 s_plus_1@6*s_minus_1@3 - 8441856 s_plus_1@6*s_minus_1@4
      - 16883712 s_plus_1@6*s_minus_1@5 - 33767424 s_plus_1@6*s_minus_1@6
      - 67534848 s_plus_1@6*s_minus_1@7 - 135069696 s_plus_1@6*s_minus_1@8
      - 527616 s_plus_1@6*s_minus_1@9 + 67534848 s_plus_1@7^2
      + 270139392 s_plus_1@7*s_plus_1@8 + 1055232 s_plus_1@7*s_plus_1@9
      - 1055232 s_plus_1@7*s_minus_1@0 - 2110464 s_plus_1@7*s_minus_1@1
      - 4220928 s_plus_1@7*s_minus_1@2 - 8441856 s_plus_1@7*s_minus_1@3
      - 16883712 s_plus_1@7*s_minus_1@4 - 33767424 s_plus_1@7*s_minus_1@5
      - 67534848 s_plus_1@7*s_minus_1@6 - 135069696 s_plus_1@7*s_minus_1@7
      - 270139392 s_plus_1@7*s_minus_1@8 - 1055232 s_plus_1@7*s_minus_1@9
      + 270139392 s_plus_1@8^2 + 2110464 s_plus_1@8*s_plus_1@9
      - 2110464 s_plus_1@8*s_minus_1@0 - 4220928 s_plus_1@8*s_minus_1@1
      - 8441856 s_plus_1@8*s_minus_1@2 - 16883712 s_plus_1@8*s_minus_1@3
      - 33767424 s_plus_1@8*s_minus_1@4 - 67534848 s_plus_1@8*s_minus_1@5
      - 135069696 s_plus_1@8*s_minus_1@6 - 270139392 s_plus_1@8*s_minus_1@7
      - 540278784 s_plus_1@8*s_minus_1@8 - 2110464 s_plus_1@8*s_minus_1@9
      + 4122 s_plus_1@9^2 - 8244 s_plus_1@9*s_minus_1@0
      - 16488 s_plus_1@9*s_minus_1@1 - 32976 s_plus_1@9*s_minus_1@2
      - 65952 s_plus_1@9*s_minus_1@3 - 131904 s_plus_1@9*s_minus_1@4
      - 263808 s_plus_1@9*s_minus_1@5 - 527616 s_plus_1@9*s_minus_1@6
      - 1055232 s_plus_1@9*s_minus_1@7 - 2110464 s_plus_1@9*s_minus_1@8
      - 8244 s_plus_1@9*s_minus_1@9 + 4122 s_minus_0@0^2
      + 16488 s_minus_0@0*s_minus_0@1 + 32976 s_minus_0@0*s_minus_0@2
      + 65952 s_minus_0@0*s_minus_0@3 + 131904 s_minus_0@0*s_minus_0@4
      + 263808 s_minus_0@0*s_minus_0@5 + 527616 s_minus_0@0*s_minus_0@6
      + 1055232 s_minus_0@0*s_minus_0@7 + 2110464 s_minus_0@0*s_minus_0@8
      + 57708 s_minus_0@0*s_minus_0@9 + 16488 s_minus_0@1^2
      + 65952 s_minus_0@1*s_minus_0@2 + 131904 s_minus_0@1*s_minus_0@3
      + 263808 s_minus_0@1*s_minus_0@4 + 527616 s_minus_0@1*s_minus_0@5
      + 1055232 s_minus_0@1*s_minus_0@6 + 2110464 s_minus_0@1*s_minus_0@7
      + 4220928 s_minus_0@1*s_minus_0@8 + 115416 s_minus_0@1*s_minus_0@9
      + 65952 s_minus_0@2^2 + 263808 s_minus_0@2*s_minus_0@3
      + 527616 s_minus_0@2*s_minus_0@4 + 1055232 s_minus_0@2*s_minus_0@5
      + 2110464 s_minus_0@2*s_minus_0@6 + 4220928 s_minus_0@2*s_minus_0@7
      + 8441856 s_minus_0@2*s_minus_0@8 + 230832 s_minus_0@2*s_minus_0@9
      + 263808 s_minus_0@3^2 + 1055232 s_minus_0@3*s_minus_0@4
      + 2110464 s_minus_0@3*s_minus_0@5 + 4220928 s_minus_0@3*s_minus_0@6
      + 8441856 s_minus_0@3*s_minus_0@7 + 16883712 s_minus_0@3*s_minus_0@8
      + 461664 s_minus_0@3*s_minus_0@9 + 1055232 s_minus_0@4^2
      + 4220928 s_minus_0@4*s_minus_0@5 + 8441856 s_minus_0@4*s_minus_0@6
      + 16883712 s_minus_0@4*s_minus_0@7 + 33767424 s_minus_0@4*s_minus_0@8
      + 923328 s_minus_0@4*s_minus_0@9 + 4220928 s_minus_0@5^2
      + 16883712 s_minus_0@5*s_minus_0@6 + 33767424 s_minus_0@5*s_minus_0@7
      + 67534848 s_minus_0@5*s_minus_0@8 + 1846656 s_minus_0@5*s_minus_0@9
      + 16883712 s_minus_0@6^2 + 67534848 s_minus_0@6*s_minus_0@7
      + 135069696 s_minus_0@6*s_minus_0@8 + 3693312 s_minus_0@6*s_minus_0@9
      + 67534848 s_minus_0@7^2 + 270139392 s_minus_0@7*s_minus_0@8
      + 7386624 s_minus_0@7*s_minus_0@9 + 270139392 s_minus_0@8^2
      + 14773248 s_minus_0@8*s_minus_0@9 + 201978 s_minus_0@9^2
      + 4122 s_minus_1@0^2 + 16488 s_minus_1@0*s_minus_1@1
      + 32976 s_minus_1@0*s_minus_1@2 + 65952 s_minus_1@0*s_minus_1@3
      + 131904 s_minus_1@0*s_minus_1@4 + 263808 s_minus_1@0*s_minus_1@5
      + 527616 s_minus_1@0*s_minus_1@6 + 1055232 s_minus_1@0*s_minus_1@7
      + 2110464 s_minus_1@0*s_minus_1@8 + 8244 s_minus_1@0*s_minus_1@9
      + 16488 s_minus_1@1^2 + 65952 s_minus_1@1*s_minus_1@2
      + 131904 s_minus_1@1*s_minus_1@3 + 263808 s_minus_1@1*s_minus_1@4
      + 527616 s_minus_1@1*s_minus_1@5 + 1055232 s_minus_1@1*s_minus_1@6
      + 2110464 s_minus_1@1*s_minus_1@7 + 4220928 s_minus_1@1*s_minus_1@8
      + 16488 s_minus_1@1*s_minus_1@9 + 65952 s_minus_1@2^2
      + 263808 s_minus_1@2*s_minus_1@3 + 527616 s_minus_1@2*s_minus_1@4
      + 1055232 s_minus_1@2*s_minus_1@5 + 2110464 s_minus_1@2*s_minus_1@6
      + 4220928 s_minus_1@2*s_minus_1@7 + 8441856 s_minus_1@2*s_minus_1@8
      + 32976 s_minus_1@2*s_minus_1@9 + 263808 s_minus_1@3^2
      + 1055232 s_minus_1@3*s_minus_1@4 + 2110464 s_minus_1@3*s_minus_1@5
      + 4220928 s_minus_1@3*s_minus_1@6 + 8441856 s_minus_1@3*s_minus_1@7
      + 16883712 s_minus_1@3*s_minus_1@8 + 65952 s_minus_1@3*s_minus_1@9
      + 1055232 s_minus_1@4^2 + 4220928 s_minus_1@4*s_minus_1@5
      + 8441856 s_minus_1@4*s_minus_1@6 + 16883712 s_minus_1@4*s_minus_1@7
      + 33767424 s_minus_1@4*s_minus_1@8 + 131904 s_minus_1@4*s_minus_1@9
      + 4220928 s_minus_1@5^2 + 16883712 s_minus_1@5*s_minus_1@6
      + 33767424 s_minus_1@5*s_minus_1@7 + 67534848 s_minus_1@5*s_minus_1@8
      + 263808 s_minus_1@5*s_minus_1@9 + 16883712 s_minus_1@6^2
      + 67534848 s_minus_1@6*s_minus_1@7 + 135069696 s_minus_1@6*s_minus_1@8
      + 527616 s_minus_1@6*s_minus_1@9 + 67534848 s_minus_1@7^2
      + 270139392 s_minus_1@7*s_minus_1@8 + 1055232 s_minus_1@7*s_minus_1@9
      + 270139392 s_minus_1@8^2 + 2110464 s_minus_1@8*s_minus_1@9
      + 4122 s_minus_1@9^2 ]/2 + 273323637
Subject To

Bounds
 0 <= x_0 <= 1
 0 <= x_1 <= 1
 0 <= x_2 <= 1
 0 <= x_3 <= 1
 0 <= x_4 <= 1
 0 <= x_5 <= 1
 0 <= x_6 <= 1
 0 <= x_7 <= 1
 0 <= x_8 <= 1
 0 <= x_9 <= 1
 0 <= s_plus_0@0 <= 1
 0 <= s_plus_0@1 <= 1
 0 <= s_plus_0@2 <= 1
 0 <= s_plus_0@3 <= 1
 0 <= s_plus_0@4 <= 1
 0 <= s_plus_0@5 <= 1
 0 <= s_plus_0@6 <= 1
 0 <= s_plus_0@7 <= 1
 0 <= s_plus_0@8 <= 1
 0 <= s_plus_0@9 <= 1
 0 <= s_plus_1@0 <= 1
 0 <= s_plus_1@1 <= 1
 0 <= s_plus_1@2 <= 1
 0 <= s_plus_1@3 <= 1
 0 <= s_plus_1@4 <= 1
 0 <= s_plus_1@5 <= 1
 0 <= s_plus_1@6 <= 1
 0 <= s_plus_1@7 <= 1
 0 <= s_plus_1@8 <= 1
 0 <= s_plus_1@9 <= 1
 0 <= s_minus_0@0 <= 1
 0 <= s_minus_0@1 <= 1
 0 <= s_minus_0@2 <= 1
 0 <= s_minus_0@3 <= 1
 0 <= s_minus_0@4 <= 1
 0 <= s_minus_0@5 <= 1
 0 <= s_minus_0@6 <= 1
 0 <= s_minus_0@7 <= 1
 0 <= s_minus_0@8 <= 1
 0 <= s_minus_0@9 <= 1
 0 <= s_minus_1@0 <= 1
 0 <= s_minus_1@1 <= 1
 0 <= s_minus_1@2 <= 1
 0 <= s_minus_1@3 <= 1
 0 <= s_minus_1@4 <= 1
 0 <= s_minus_1@5 <= 1
 0 <= s_minus_1@6 <= 1
 0 <= s_minus_1@7 <= 1
 0 <= s_minus_1@8 <= 1
 0 <= s_minus_1@9 <= 1

Binaries
 x_0 x_1 x_2 x_3 x_4 x_5 x_6 x_7 x_8 x_9 s_plus_0@0 s_plus_0@1 s_plus_0@2
 s_plus_0@3 s_plus_0@4 s_plus_0@5 s_plus_0@6 s_plus_0@7 s_plus_0@8 s_plus_0@9
 s_plus_1@0 s_plus_1@1 s_plus_1@2 s_plus_1@3 s_plus_1@4 s_plus_1@5 s_plus_1@6
 s_plus_1@7 s_plus_1@8 s_plus_1@9 s_minus_0@0 s_minus_0@1 s_minus_0@2
 s_minus_0@3 s_minus_0@4 s_minus_0@5 s_minus_0@6 s_minus_0@7 s_minus_0@8
 s_minus_0@9 s_minus_1@0 s_minus_1@1 s_minus_1@2 s_minus_1@3 s_minus_1@4
 s_minus_1@5 s_minus_1@6 s_minus_1@7 s_minus_1@8 s_minus_1@9
End
